S20 U12
1.0
       11.7634000778         0.0000000000         0.0000000000
        0.0000000000         8.1091003418         0.0000000000
        0.0000000000         0.0000000000         7.4295001030
    S    U   U
   20   8    4
Direct
     0.094339997         0.042679999         0.167769998
     0.905660033         0.957319975         0.832229972
     0.405660003         0.957319975         0.667770028
     0.594339967         0.042679999         0.332230002
     0.905660033         0.542680025         0.832229972
     0.094339997         0.457320005         0.167769998
     0.594339967         0.457320005         0.332230002
     0.405660003         0.542680025         0.667770028
     0.999270022         0.250000000         0.541289985
     0.000730000         0.750000000         0.458710015
     0.500729978         0.750000000         0.041289985
     0.499269992         0.250000000         0.958710015
     0.216859996         0.250000000         0.806819975
     0.783140004         0.750000000         0.193180025
     0.283140004         0.750000000         0.306819975
     0.716859996         0.250000000         0.693180025
     0.311040014         0.250000000         0.332859993
     0.688959956         0.750000000         0.667140007
     0.188959986         0.750000000         0.832859993
     0.811040044         0.250000000         0.167140007
     0.323740005         0.001030000         0.029020000
     0.676259995         0.998969972         0.970979989
     0.176259995         0.998969972         0.529020011
     0.823740005         0.001030000         0.470979989
     0.676259995         0.501030028         0.970979989
     0.323740005         0.498970002         0.029020000
     0.823740005         0.498970002         0.470979989
     0.176259995         0.501030028         0.529020011
     0.490669996         0.250000000         0.573979974
     0.509330034         0.750000000         0.426020026
     0.009330004         0.750000000         0.073979974
     0.990669966         0.250000000         0.926020026
